
  22   10
  10   10   10   10   10   10   10   10   10   10

   0   0   0   0   0   0   0   0   0   0   0   1 2 
   1   0   0   0   0   0   0   0  10   0   0   1 3 
   4   0   0   0   0   0   0  10   0   0   0   1 4 
   5   0   0   0   0   0  10   0   0   0   0   1 5 
  10   0   0   0  10   0   0   0   0   0   0   1 6 
   7   0   0   0   0   0  10   0   0   0   0   1 7 
   7  10   0   0   0   0   0   0   0   0   0   1 8 
   1   0  10   0   0   0   0   0   0   0   0   1 9 
   5   0   0  10   0   0   0   0   0   0   0   1 10 
   7   0   0   0   0   0   0   0   0   0  10   1 11 
   5   0   0   0   0   0   0  10   0   0   0   2 16 12 
   5   0  10   0   0   0   0   0   0   0   0   2 18 13 
   6   0  10   0   0   0   0   0   0   0   0   1 14 
   1   0  10   0   0   0   0   0   0   0   0   1 15 
   2   0   0   0   0   0   0   0  10   0   0   1 17 
   2   0   0   0   0   0   0   0  10   0   0   1 17 
   9   0   0   0   0   0   0  10   0   0   0   1 19 
   6   0   0   0   0   0   0  10   0   0   0   1 19 
   3  10   0   0   0   0   0   0   0   0   0   1 20 
   1   0   0  10   0   0   0   0   0   0   0   1 21 
   9   0   0  10   0   0   0   0   0   0   0   1 22
   0   0   0   0   0   0   0   0   0   0   0   0 
